set PRODUCTS = x1 x2 x3 x4 x5;
set RESOURCES = c1 c2 c3;

param price := x1 4 x2 4 x3 0 x4 1 x5 5;

param avail := c1 3 c2 3 c3 1;

param use :  x1 x2 x3 x4 x5  :=
   c1         2  1  0  1 -2
   c2        -1  1  1  0  0
   c3         1  0  0  1 -1
   ;
